148672
78,90,23,101,73,13,46,60,102,3,14,74,34,62,31,6,52,83,38,36,48,17,69,93,77,2,100,37,103,40,66,94,53,70,35,72,47,84,10,104,59,95,32,1,81,71,50,99,44,24,85,45,76,5,39,55,19,15,63,89,16,20,21,61,98,67,18,41,80,68,87,12,30,64,97,105,96,7,91,22,56,79,82,33,25,49,8,51,4,54,29,28,11,92,88,75,57,0,86,27,26,9,65,58,43,42
